(declare-const x0 Bool)
(declare-const x1 Bool)
(declare-const x2 Bool)
(declare-const x3 Bool)
(declare-const x4 Bool)
(declare-const x5 Bool)
(declare-const x6 Bool)
(declare-const x7 Bool)
(declare-const x8 Bool)
(declare-const x9 Bool)
(declare-const x10 Bool)
(declare-const x11 Bool)
(declare-const x12 Bool)
(declare-const x13 Bool)
(declare-const x14 Bool)
(declare-const x15 Bool)
(declare-const x16 Bool)
(declare-const x17 Bool)
(declare-const x18 Bool)
(declare-const x19 Bool)
(declare-const x20 Bool)
(declare-const x21 Bool)
(declare-const x22 Bool)
(declare-const x23 Bool)
(declare-const x24 Bool)
(declare-const x25 Bool)
(declare-const x26 Bool)
(declare-const x27 Bool)
(declare-const x28 Bool)
(declare-const x29 Bool)
(declare-const x30 Bool)
(declare-const x31 Bool)
(declare-const x32 Bool)
(declare-const x33 Bool)
(assert (and false x2))
(assert (= (or (= x2 false) x5) (and x9 (or (or x15 x25) (and false x15)))))
(assert (and (or x0 (and true true)) (and (and (or x32 x5) x33) (= (or (and true x1) (and x2 x30)) (= false true)))))
(assert (or true (or (and true false) (and x26 x29))))
(assert (or (= (or true (and x8 false)) (and (= x7 true) (or x29 x12))) false))
(assert (= x21 (= (and (and true x20) x7) true)))
(assert (= x5 false))
(assert (= (= x23 x19) (= x19 (= x22 x26))))
(assert (or (and (and (and true x1) x1) x4) (or (= x3 false) (= x18 false))))
(assert (= (or (= x29 (and false x27)) (or (and (or x18 true) (= true false)) (and true (or (or true false) false)))) (or (and (= (= x19 x11) false) (= x16 (or true x2))) true)))
(check-sat)
